c turning on binary mode checking
c parsing input formula with 259840 variables and 1039929 clauses
c finished parsing, read 23204217 bytes from proof file
c detected empty clause; start verification via backward checking
c 8552 of 1039929 clauses in core                            
c 11103 of 602316 lemmas in core using 78385 resolution steps
c 0 RAT lemmas in core; 732 redundant literals in core lemmas
s VERIFIED
c verification time: 2.616 seconds
